words_hard_train/2598.qaiger
aag 35 17 0 1 18
2
4
8
10
16
18
24
26
30
34
36
42
44
52
54
62
64
70
6 3 5
12 9 11
14 7 13
20 17 19
22 14 21
28 25 27
32 29 30
38 35 37
40 33 39
46 43 45
48 40 47
50 22 48
56 53 55
58 28 31
60 57 59
66 63 65
68 60 67
70 50 68
i0 1 x1[1]
i1 2 y2[1]
i2 1 x1[4]
i3 2 y2[4]
i4 1 x1[3]
i5 2 y2[3]
i6 1 x1[7]
i7 2 y2[7]
i8 2 y1[0]
i9 1 x1[2]
i10 2 y2[2]
i11 1 x1[6]
i12 2 y2[6]
i13 1 x1[5]
i14 2 y2[5]
i15 1 x1[0]
i16 2 y2[0]
o0 bool[0]
c
simplified
  ==
    << 7
      2 y1
    add
      1
      or
        2 y2
        1 x1
