words_hard_train/2598.qaiger.qdimacs
p cnf 35 55
a 1 4 8 12 17 21 26 31 0
e 2 3 5 6 7 9 10 11 13 14 15 16 18 19 20 22 23 24 25 27 28 29 30 32 33 34 35 0
1 2 3 0
-1 -3 0
-2 -3 0
4 5 6 0
-4 -6 0
-5 -6 0
3 6 7 0
-3 -7 0
-6 -7 0
8 9 10 0
-8 -10 0
-9 -10 0
-7 10 11 0
7 -11 0
-10 -11 0
12 13 14 0
-12 -14 0
-13 -14 0
14 -15 16 0
-14 -16 0
15 -16 0
17 18 19 0
-17 -19 0
-18 -19 0
16 19 20 0
-16 -20 0
-19 -20 0
21 22 23 0
-21 -23 0
-22 -23 0
-20 23 24 0
20 -24 0
-23 -24 0
-11 -24 25 0
11 -25 0
24 -25 0
26 27 28 0
-26 -28 0
-27 -28 0
-14 15 29 0
14 -29 0
-15 -29 0
28 29 30 0
-28 -30 0
-29 -30 0
31 32 33 0
-31 -33 0
-32 -33 0
-30 33 34 0
30 -34 0
-33 -34 0
-25 -34 35 0
25 -35 0
34 -35 0
35 0
